Version identifier: 12.10.0.0 | 2019-11-26 | 843d4de
CPXPARAM_WorkMem                                 28672
Tried aggregator 2 times.
Aggregator did 40 substitutions.
Reduced MIP has 143 rows, 180 columns, and 669 nonzeros.
Reduced MIP has 180 binaries, 0 generals, 0 SOSs, and 0 indicators.
Presolve time = 0,00 sec. (0,63 ticks)
Found incumbent of value 660,000000 after 0,00 sec. (1,08 ticks)
Probing time = 0,00 sec. (0,20 ticks)
Tried aggregator 1 time.
Detecting symmetries...
MIP Presolve eliminated 15 rows and 0 columns.
MIP Presolve added 30 rows and 0 columns.
Reduced MIP has 158 rows, 180 columns, and 684 nonzeros.
Reduced MIP has 180 binaries, 0 generals, 0 SOSs, and 0 indicators.
Presolve time = 0,00 sec. (0,75 ticks)
Probing time = 0,00 sec. (0,20 ticks)
Clique table members: 449.
MIP emphasis: balance optimality and feasibility.
MIP search method: dynamic search.
Parallel mode: deterministic, using up to 16 threads.
Root relaxation solution time = 0,00 sec. (0,33 ticks)

        Nodes                                         Cuts/
   Node  Left     Objective  IInf  Best Integer    Best Bound    ItCnt     Gap

*     0+    0                          660,0000        0,0000           100,00%
*     0+    0                          491,0000        0,0000           100,00%
*     0+    0                          442,0000        0,0000           100,00%
*     0+    0                          424,0000        0,0000           100,00%
      0     0      220,0000   102      424,0000      220,0000       43   48,11%
      0     0      220,0000   102      424,0000     Cuts: 138       84   48,11%
      0     0      220,0000   102      424,0000     Cuts: 139      150   48,11%
      0     0      220,0000   102      424,0000     Cuts: 139      215   48,11%
*     0+    0                          409,0000      220,0000            46,21%
*     0+    0                          385,0000      220,0000            42,86%
      0     2      220,0000   113      385,0000      220,0000      215   42,86%
Elapsed time = 0,06 sec. (20,71 ticks, tree = 0,02 MB, solutions = 6)
   3886   737      383,8511    73      385,0000      366,2000    93482    4,88%

Clique cuts applied:  71
Cover cuts applied:  314
Mixed integer rounding cuts applied:  5
Zero-half cuts applied:  2
Gomory fractional cuts applied:  2

Root node processing (before b&c):
  Real time             =    0,05 sec. (20,62 ticks)
Parallel b&c, 16 threads:
  Real time             =    0,50 sec. (255,50 ticks)
  Sync time (average)   =    0,20 sec.
  Wait time (average)   =    0,00 sec.
                          ------------
Total (root+branch&cut) =    0,55 sec. (276,12 ticks)
